peakDumbCharging = 11100; 
Machine = anon_enum(16); 
machineSpeed = [3700,3700,3700,3700,3700,3700,3700,3700,3700,3700,3700,3700,3700,3700,3700,3700]; 
machineLoad = [3700,3700,3700,3700,3700,3700,3700,3700,3700,3700,3700,3700,3700,3700,3700,3700]; 
Car = anon_enum(10); 
demandCar = [4800,640,1760,5880,9840,4680,1600,12840,3400,9680]; 
arrivalCar = [73,73,70,70,61,59,58,55,50,33]; 
departureCar = [75,74,72,73,72,61,60,60,57,37]; 
